49 293
185 224
733 695
56 744
613 431
169 281
473 868
433 781
346 725
594 570
411 109
18 635
428 0
717 688
399 794
854 444
248 218
604 808
898 842
117 764
94 285
740 857
401 168
748 786
745 87
773 314
666 3
647 460
496 342
596 593
8 234
857 212
717 234
49 716
530 609
634 808
833 56
55 514
791 295
800 664
804 566
451 641
99 189
601 673
472 68
579 207
830 893
755 256
401 278
494 368
